\ENCODING=ISO-8859-1
\Problem name: IloCplex

Minimize
 obj: 1000000000000 x1 + x2 + 1000000000000 x3 + x4 + 1000000000000 x5 + x6
      + 1000000000000 x7 + x8 + 1000000000000 x9 + x10 + 1000000000000 x11
      + x12 + 1000000000000 x13 + x14 + 1000000000000 x15 + x16
      + 1000000000000 x17 + x18 + x19 + x20 + 1000000000000 x21 + x22 + x23
      + x24 + x25 + 1000000000000 x26 + x27 + x28 + x29 + 1000000000000 x30
      + x31 + x32 + x33 + 1000000000000 x34 + x35 + x36 + x37 + x38 + x39
      + 1000000000000 x40 + x41 + x42 + x43 + x44 + x45 + x46
      + 1000000000000 x47 + x48 + x49 + x50 + x51 + 1000000000000 x52 + x53
      + x54 + x55 + x56 + 1000000000000 x57 + x58 + x59 + x60 + x61 + x62
      + 1000000000000 x63 + x64 + x65 + x66 + x67 + x68 + 1000000000000 x69
      + x70 + x71 + x72 + x73 + x74 + x75 + x76 + x77 + x78 + 1000000000000 x79
      + x80 + x81 + x82 + x83 + 1000000000000 x84 + x85 + x86 + x87 + x88 + x89
      + x90 + x91 + x92 + x93 + 1000000000000 x94 + x95 + x96
      + 1000000000000 x97 + x98 + x99 + x100 + x101 + x102 + x103 + x104 + x105
      + x106 + x107 + 1000000000000 x108 + x109 + x110 + x111 + x112
      + 1000000000000 x113 + x114 + x115 + 1000000000000 x116 + x117 + x118
      + x119 + x120 + x121 + x122 + x123 + x124 + x125 + x126
      + 1000000000000 x127 + x128 + x129 + x130 + x131 + x132
      + 1000000000000 x133 + x134 + x135 + x136 + x137 + x138 + x139 + x140
      + 1000000000000 x141 + x142 + x143 + x144 + x145 + x146 + x147 + x148
      + x149 + 1000000000000 x150 + x151 + x152 + x153 + x154
      + 1000000000000 x155 + x156 + x157 + 1000000000000 x158 + x159 + x160
      + x161 + x162 + 1000000000000 x163 + x164 + x165 + x166 + x167 + x168
      + 1000000000000 x169 + x170 + x171 + 1000000000000 x172 + x173 + x174
      + x175 + x176 + 1000000000000 x177 + x178 + x179 + x180
      + 1000000000000 x181 + x182 + x183 + 1000000000000 x184 + x185 + x186
      + 1000000000000 x187 + x188 + x189 + 1000000000000 x190 + x191 + x192
      + 1000000000000 x193 + x194 + 1000000000000 x195 + x196 + x197
      + 1000000000000 x198 + x199 + 1000000000000 x200 + 1000000000000 x201
      + 1000000000000 x202 + 1000000000000 x203 + 1000000000000 x204
      + 1000000000000 x205 + 1000000000000 x206
Subject To
 c1:  x1 + x2  = 1
 c2:  x3 + x4  = 1
 c3:  x5 + x6  = 1
 c4:  x7 + x8  = 1
 c5:  x9 + x10  = 1
 c6:  x11 + x12  = 1
 c7:  x13 + x14  = 1
 c8:  x15 + x16  = 1
 c9:  x17 + x18 + x19 + x20  = 1
 c10: x21 + x22 + x23 + x24 + x25  = 1
 c11: x26 + x27 + x28 + x29  = 1
 c12: x30 + x31 + x32 + x33  = 1
 c13: x34 + x35 + x36 + x37 + x38 + x39  = 1
 c14: x40 + x41 + x42 + x43 + x44 + x45 + x46  = 1
 c15: x47 + x48 + x49 + x50 + x51  = 1
 c16: x52 + x53 + x54 + x55 + x56  = 1
 c17: x57 + x58 + x59 + x60 + x61 + x62  = 1
 c18: x63 + x64 + x65 + x66 + x67 + x68  = 1
 c19: x69 + x70 + x71 + x72 + x73 + x74 + x75 + x76 + x77 + x78  = 1
 c20: x79 + x80 + x81 + x82 + x83  = 1
 c21: x84 + x85 + x86 + x87 + x88 + x89 + x90 + x91 + x92 + x93  = 1
 c22: x78 + x80 + x85 + x86 + x94 + x95 + x96  = 1
 c23: x87 + x97 + x98 + x99 + x100 + x101 + x102 + x103 + x104 + x105 + x106
      + x107  = 1
 c24: x64 + x101 + x108 + x109 + x110 + x111 + x112  = 1
 c25: x65 + x99 + x107 + x110 + x113 + x114 + x115  = 1
 c26: x68 + x76 + x106 + x112 + x114 + x116 + x117 + x118 + x119 + x120 + x121
      + x122 + x123 + x124 + x125 + x126  = 1
 c27: x81 + x98 + x105 + x117 + x127 + x128 + x129 + x130 + x131 + x132  = 1
 c28: x72 + x118 + x125 + x129 + x133 + x134 + x135 + x136 + x137 + x138 + x139
      + x140  = 1
 c29: x90 + x109 + x130 + x134 + x137 + x141 + x142 + x143 + x144 + x145 + x146
      + x147 + x148 + x149  = 1
 c30: x121 + x131 + x135 + x136 + x137 + x142 + x148 + x150 + x151 + x152
      + x153 + x154  = 1
 c31: x58 + x100 + x151 + x155 + x156 + x157  = 1
 c32: x62 + x92 + x103 + x122 + x124 + x131 + x138 + x139 + x140 + x146 + x149
      + x153 + x156 + x158 + x159 + x160 + x161 + x162  = 1
 c33: x61 + x91 + x93 + x120 + x130 + x138 + x153 + x156 + x162 + x163 + x164
      + x165 + x166 + x167 + x168  = 1
 c34: x83 + x115 + x124 + x129 + x142 + x143 + x148 + x159 + x165 + x169 + x170
      + x171  = 1
 c35: x53 + x119 + x135 + x157 + x167 + x170 + x172 + x173 + x174 + x175 + x176
       = 1
 c36: x45 + x51 + x54 + x60 + x75 + x89 + x115 + x120 + x122 + x147 + x154
      + x160 + x166 + x168 + x173 + x174 + x177 + x178 + x179 + x180  = 1
 c37: x50 + x88 + x95 + x103 + x119 + x125 + x146 + x161 + x171 + x175 + x178
      + x179 + x180 + x181 + x182 + x183  = 1
 c38: x38 + x73 + x118 + x126 + x128 + x161 + x173 + x176 + x179 + x182 + x184
      + x185 + x186  = 1
 c39: x37 + x66 + x67 + x73 + x110 + x111 + x112 + x128 + x132 + x144 + x145
      + x160 + x164 + x168 + x171 + x183 + x185 + x186 + x187 + x188 + x189
       = 1
 c40: x41 + x46 + x55 + x77 + x104 + x105 + x111 + x123 + x132 + x143 + x152
      + x162 + x174 + x175 + x180 + x186 + x188 + x190 + x191 + x192  = 1
 c41: x39 + x43 + x44 + x48 + x56 + x71 + x74 + x77 + x82 + x88 + x95 + x96
      + x100 + x102 + x104 + x121 + x123 + x126 + x132 + x144 + x147 + x154
      + x167 + x170 + x176 + x178 + x180 + x182 + x185 + x188 + x192 + x193
      + x194  = 1
 c42: x35 + x42 + x66 + x70 + x75 + x102 + x107 + x123 + x128 + x140 + x145
      + x152 + x159 + x164 + x166 + x178 + x183 + x189 + x191 + x192 + x194
      + x195 + x196 + x197  = 1
 c43: x67 + x74 + x82 + x93 + x96 + x99 + x106 + x109 + x134 + x139 + x149
      + x154 + x159 + x164 + x165 + x168 + x182 + x183 + x188 + x191 + x196
      + x197 + x198 + x199  = 1
 c44: x70 + x89 + x91 + x92 + x101 + x102 + x117 + x136 + x144 + x145 + x149
      + x151 + x157 + x166 + x175 + x176 + x179 + x188 + x189 + x194 + x196
      + x197 + x199 + x200  = 1
 c45: x36 + x83 + x90 + x96 + x98 + x104 + x111 + x126 + x136 + x139 + x140
      + x147 + x152 + x157 + x160 + x161 + x162 + x165 + x174 + x183 + x185
      + x186 + x189 + x191 + x194 + x196 + x197 + x199 + x201  = 1
 c46: x32 + x49 + x71 + x143 + x151 + x167 + x170 + x171 + x173 + x186 + x189
      + x191 + x192 + x194 + x196 + x197 + x199 + x202  = 1
 c47: x19 + x23 + x28 + x33 + x43 + x48 + x70 + x72 + x76 + x89 + x98 + x114
      + x134 + x145 + x146 + x152 + x164 + x170 + x179 + x185 + x191 + x192
      + x194 + x196 + x197 + x199 + x203  = 1
 c48: x24 + x28 + x29 + x33 + x44 + x49 + x71 + x74 + x82 + x87 + x109 + x114
      + x115 + x117 + x148 + x152 + x153 + x160 + x165 + x171 + x173 + x175
      + x176 + x178 + x185 + x189 + x191 + x192 + x196 + x197 + x199 + x204
       = 1
 c49: x20 + x25 + x28 + x31 + x46 + x55 + x56 + x60 + x85 + x114 + x119 + x121
      + x122 + x134 + x138 + x144 + x147 + x161 + x164 + x166 + x168 + x174
      + x176 + x182 + x185 + x186 + x189 + x192 + x196 + x199 + x205  = 1
 c50: x19 + x20 + x23 + x24 + x25 + x29 + x31 + x35 + x39 + x46 + x51 + x55
      + x56 + x67 + x71 + x74 + x77 + x80 + x105 + x111 + x117 + x126 + x139
      + x142 + x156 + x164 + x171 + x173 + x174 + x182 + x185 + x188 + x189
      + x191 + x194 + x199 + x206  = 1
Bounds
      x23 = 0
      x24 = 0
      x25 = 0
      x41 = 0
      x46 = 0
      x55 = 0
      x65 = 0
      x68 = 0
      x70 = 0
      x76 = 0
      x77 = 0
      x85 = 0
      x86 = 0
      x87 = 0
      x88 = 0
      x90 = 0
      x93 = 0
      x98 = 0
      x100 = 0
      x101 = 0
      x102 = 0
      x103 = 0
      x104 = 0
      x105 = 0
      x106 = 0
      x110 = 0
      x111 = 0
      x112 = 0
      x114 = 0
      x115 = 0
      x117 = 0
      x118 = 0
      x119 = 0
      x120 = 0
      x121 = 0
      x122 = 0
      x124 = 0
      x125 = 0
      x126 = 0
      x132 = 0
      x136 = 0
      x143 = 0
      x144 = 0
      x145 = 0
      x149 = 0
      x151 = 0
      x152 = 0
      x157 = 0
      x162 = 0
      x166 = 0
      x174 = 0
      x175 = 0
      x176 = 0
      x179 = 0
      x180 = 0
      x186 = 0
      x188 = 0
      x189 = 0
      x191 = 0
      x192 = 0
      x194 = 0
      x196 = 0
      x197 = 0
      x199 = 0
End
